gang-warfare-project/gangwarfare.fzn
predicate all_different_int(array [int] of var int: x);
predicate inverse_offsets(array [int] of var int: f,int: foff,array [int] of var int: invf,int: invfoff);
array [1..2] of int: X_INTRODUCED_55_ = [1,-1];
var 0..11: X_INTRODUCED_0_;
var 0..11: X_INTRODUCED_1_;
var 0..11: X_INTRODUCED_2_;
var 0..11: X_INTRODUCED_3_;
var 0..11: X_INTRODUCED_4_;
var 0..11: X_INTRODUCED_5_;
var 0..11: X_INTRODUCED_6_;
var 0..11: X_INTRODUCED_7_;
var 0..11: X_INTRODUCED_8_;
var 0..11: X_INTRODUCED_9_;
var 0..11: X_INTRODUCED_10_;
var 0..11: X_INTRODUCED_11_;
var 0..11: X_INTRODUCED_12_;
var 0..11: X_INTRODUCED_13_;
var 0..11: X_INTRODUCED_14_;
var 0..11: X_INTRODUCED_15_;
var 0..11: X_INTRODUCED_16_;
var 0..11: X_INTRODUCED_17_;
var 1..18: X_INTRODUCED_18_;
var 1..18: X_INTRODUCED_19_;
var 1..18: X_INTRODUCED_20_;
var 1..18: X_INTRODUCED_21_;
var 1..18: X_INTRODUCED_22_;
var 1..18: X_INTRODUCED_23_;
var 1..18: X_INTRODUCED_24_;
var 1..18: X_INTRODUCED_25_;
var 1..18: X_INTRODUCED_26_;
var 1..18: X_INTRODUCED_27_;
var 1..18: X_INTRODUCED_28_;
var 1..18: X_INTRODUCED_29_;
var 1..18: X_INTRODUCED_30_;
var 1..18: X_INTRODUCED_31_;
var 1..18: X_INTRODUCED_32_;
var 1..18: X_INTRODUCED_33_;
var 1..18: X_INTRODUCED_34_;
var 1..18: X_INTRODUCED_35_;
var 1..18: X_INTRODUCED_36_;
var 1..18: X_INTRODUCED_37_;
var 1..18: X_INTRODUCED_38_;
var 1..18: X_INTRODUCED_39_;
var 1..18: X_INTRODUCED_40_;
var 1..18: X_INTRODUCED_41_;
var 1..18: X_INTRODUCED_42_;
var 1..18: X_INTRODUCED_43_;
var 1..18: X_INTRODUCED_44_;
var 1..18: X_INTRODUCED_45_;
var 1..18: X_INTRODUCED_46_;
var 1..18: X_INTRODUCED_47_;
var 1..18: X_INTRODUCED_48_;
var 1..18: X_INTRODUCED_49_;
var 1..18: X_INTRODUCED_50_;
var 1..18: X_INTRODUCED_51_;
var 1..18: X_INTRODUCED_52_;
var 1..18: X_INTRODUCED_53_;
var 0..198: X_INTRODUCED_54_:: is_defined_var;
var -17..17: X_INTRODUCED_56_ ::var_is_introduced :: is_defined_var;
var 2..17: X_INTRODUCED_57_ ::var_is_introduced :: is_defined_var;
var -17..17: X_INTRODUCED_58_ ::var_is_introduced :: is_defined_var;
var 2..17: X_INTRODUCED_59_ ::var_is_introduced :: is_defined_var;
var -17..17: X_INTRODUCED_60_ ::var_is_introduced :: is_defined_var;
var 2..17: X_INTRODUCED_61_ ::var_is_introduced :: is_defined_var;
var -17..17: X_INTRODUCED_62_ ::var_is_introduced :: is_defined_var;
var 2..17: X_INTRODUCED_63_ ::var_is_introduced :: is_defined_var;
var -17..17: X_INTRODUCED_64_ ::var_is_introduced :: is_defined_var;
var 2..17: X_INTRODUCED_65_ ::var_is_introduced :: is_defined_var;
var -17..17: X_INTRODUCED_66_ ::var_is_introduced :: is_defined_var;
var 2..17: X_INTRODUCED_67_ ::var_is_introduced :: is_defined_var;
var -17..17: X_INTRODUCED_68_ ::var_is_introduced :: is_defined_var;
var 2..17: X_INTRODUCED_69_ ::var_is_introduced :: is_defined_var;
var -17..17: X_INTRODUCED_70_ ::var_is_introduced :: is_defined_var;
var 2..17: X_INTRODUCED_71_ ::var_is_introduced :: is_defined_var;
var -17..17: X_INTRODUCED_72_ ::var_is_introduced :: is_defined_var;
var 2..17: X_INTRODUCED_73_ ::var_is_introduced :: is_defined_var;
var -17..17: X_INTRODUCED_74_ ::var_is_introduced :: is_defined_var;
var 2..17: X_INTRODUCED_75_ ::var_is_introduced :: is_defined_var;
var -17..17: X_INTRODUCED_76_ ::var_is_introduced :: is_defined_var;
var 2..17: X_INTRODUCED_77_ ::var_is_introduced :: is_defined_var;
var -17..17: X_INTRODUCED_78_ ::var_is_introduced :: is_defined_var;
var 2..17: X_INTRODUCED_79_ ::var_is_introduced :: is_defined_var;
var -17..17: X_INTRODUCED_80_ ::var_is_introduced :: is_defined_var;
var 2..17: X_INTRODUCED_81_ ::var_is_introduced :: is_defined_var;
var -17..17: X_INTRODUCED_82_ ::var_is_introduced :: is_defined_var;
var 2..17: X_INTRODUCED_83_ ::var_is_introduced :: is_defined_var;
var -17..17: X_INTRODUCED_84_ ::var_is_introduced :: is_defined_var;
var 2..17: X_INTRODUCED_85_ ::var_is_introduced :: is_defined_var;
var -17..17: X_INTRODUCED_86_ ::var_is_introduced :: is_defined_var;
var 2..17: X_INTRODUCED_87_ ::var_is_introduced :: is_defined_var;
var -17..17: X_INTRODUCED_88_ ::var_is_introduced :: is_defined_var;
var 2..17: X_INTRODUCED_89_ ::var_is_introduced :: is_defined_var;
var -17..17: X_INTRODUCED_90_ ::var_is_introduced :: is_defined_var;
var 2..17: X_INTRODUCED_91_ ::var_is_introduced :: is_defined_var;
var -17..17: X_INTRODUCED_92_ ::var_is_introduced :: is_defined_var;
var 2..17: X_INTRODUCED_93_ ::var_is_introduced :: is_defined_var;
var bool: X_INTRODUCED_94_ ::var_is_introduced :: is_defined_var;
var bool: X_INTRODUCED_95_ ::var_is_introduced :: is_defined_var;
var bool: X_INTRODUCED_96_ ::var_is_introduced :: is_defined_var;
var bool: X_INTRODUCED_106_ ::var_is_introduced :: is_defined_var;
var bool: X_INTRODUCED_107_ ::var_is_introduced :: is_defined_var;
var bool: X_INTRODUCED_108_ ::var_is_introduced :: is_defined_var;
var bool: X_INTRODUCED_118_ ::var_is_introduced :: is_defined_var;
var bool: X_INTRODUCED_119_ ::var_is_introduced :: is_defined_var;
var bool: X_INTRODUCED_120_ ::var_is_introduced :: is_defined_var;
var bool: X_INTRODUCED_130_ ::var_is_introduced :: is_defined_var;
var bool: X_INTRODUCED_131_ ::var_is_introduced :: is_defined_var;
var bool: X_INTRODUCED_132_ ::var_is_introduced :: is_defined_var;
var bool: X_INTRODUCED_142_ ::var_is_introduced :: is_defined_var;
var bool: X_INTRODUCED_143_ ::var_is_introduced :: is_defined_var;
var bool: X_INTRODUCED_144_ ::var_is_introduced :: is_defined_var;
var bool: X_INTRODUCED_154_ ::var_is_introduced :: is_defined_var;
var bool: X_INTRODUCED_155_ ::var_is_introduced :: is_defined_var;
var bool: X_INTRODUCED_156_ ::var_is_introduced :: is_defined_var;
var bool: X_INTRODUCED_202_ ::var_is_introduced :: is_defined_var;
var bool: X_INTRODUCED_203_ ::var_is_introduced :: is_defined_var;
var bool: X_INTRODUCED_204_ ::var_is_introduced :: is_defined_var;
var bool: X_INTRODUCED_214_ ::var_is_introduced :: is_defined_var;
var bool: X_INTRODUCED_215_ ::var_is_introduced :: is_defined_var;
var bool: X_INTRODUCED_216_ ::var_is_introduced :: is_defined_var;
var bool: X_INTRODUCED_226_ ::var_is_introduced :: is_defined_var;
var bool: X_INTRODUCED_227_ ::var_is_introduced :: is_defined_var;
var bool: X_INTRODUCED_228_ ::var_is_introduced :: is_defined_var;
var bool: X_INTRODUCED_238_ ::var_is_introduced :: is_defined_var;
var bool: X_INTRODUCED_239_ ::var_is_introduced :: is_defined_var;
var bool: X_INTRODUCED_240_ ::var_is_introduced :: is_defined_var;
var bool: X_INTRODUCED_250_ ::var_is_introduced :: is_defined_var;
var bool: X_INTRODUCED_251_ ::var_is_introduced :: is_defined_var;
var bool: X_INTRODUCED_252_ ::var_is_introduced :: is_defined_var;
var bool: X_INTRODUCED_262_ ::var_is_introduced :: is_defined_var;
var bool: X_INTRODUCED_263_ ::var_is_introduced :: is_defined_var;
var bool: X_INTRODUCED_264_ ::var_is_introduced :: is_defined_var;
var bool: X_INTRODUCED_274_ ::var_is_introduced :: is_defined_var;
var bool: X_INTRODUCED_275_ ::var_is_introduced :: is_defined_var;
var bool: X_INTRODUCED_276_ ::var_is_introduced :: is_defined_var;
var bool: X_INTRODUCED_286_ ::var_is_introduced :: is_defined_var;
var bool: X_INTRODUCED_287_ ::var_is_introduced :: is_defined_var;
var bool: X_INTRODUCED_288_ ::var_is_introduced :: is_defined_var;
var bool: X_INTRODUCED_298_ ::var_is_introduced :: is_defined_var;
var bool: X_INTRODUCED_299_ ::var_is_introduced :: is_defined_var;
var bool: X_INTRODUCED_300_ ::var_is_introduced :: is_defined_var;
var bool: X_INTRODUCED_310_ ::var_is_introduced :: is_defined_var;
var bool: X_INTRODUCED_311_ ::var_is_introduced :: is_defined_var;
var bool: X_INTRODUCED_312_ ::var_is_introduced :: is_defined_var;
var bool: X_INTRODUCED_322_ ::var_is_introduced :: is_defined_var;
var bool: X_INTRODUCED_323_ ::var_is_introduced :: is_defined_var;
var bool: X_INTRODUCED_324_ ::var_is_introduced :: is_defined_var;
var bool: X_INTRODUCED_334_ ::var_is_introduced :: is_defined_var;
var bool: X_INTRODUCED_335_ ::var_is_introduced :: is_defined_var;
var bool: X_INTRODUCED_336_ ::var_is_introduced :: is_defined_var;
array [1..18] of var int: score:: output_array([1..18]) = [X_INTRODUCED_0_,X_INTRODUCED_1_,X_INTRODUCED_2_,X_INTRODUCED_3_,X_INTRODUCED_4_,X_INTRODUCED_5_,X_INTRODUCED_6_,X_INTRODUCED_7_,X_INTRODUCED_8_,X_INTRODUCED_9_,X_INTRODUCED_10_,X_INTRODUCED_11_,X_INTRODUCED_12_,X_INTRODUCED_13_,X_INTRODUCED_14_,X_INTRODUCED_15_,X_INTRODUCED_16_,X_INTRODUCED_17_];
array [1..18] of var int: order:: output_array([1..18]) = [X_INTRODUCED_18_,X_INTRODUCED_19_,X_INTRODUCED_20_,X_INTRODUCED_21_,X_INTRODUCED_22_,X_INTRODUCED_23_,X_INTRODUCED_24_,X_INTRODUCED_25_,X_INTRODUCED_26_,X_INTRODUCED_27_,X_INTRODUCED_28_,X_INTRODUCED_29_,X_INTRODUCED_30_,X_INTRODUCED_31_,X_INTRODUCED_32_,X_INTRODUCED_33_,X_INTRODUCED_34_,X_INTRODUCED_35_];
array [1..18] of var int: time = [X_INTRODUCED_36_,X_INTRODUCED_37_,X_INTRODUCED_38_,X_INTRODUCED_39_,X_INTRODUCED_40_,X_INTRODUCED_41_,X_INTRODUCED_42_,X_INTRODUCED_43_,X_INTRODUCED_44_,X_INTRODUCED_45_,X_INTRODUCED_46_,X_INTRODUCED_47_,X_INTRODUCED_48_,X_INTRODUCED_49_,X_INTRODUCED_50_,X_INTRODUCED_51_,X_INTRODUCED_52_,X_INTRODUCED_53_];
constraint all_different_int(time);
constraint all_different_int(order);
constraint int_abs(X_INTRODUCED_56_,X_INTRODUCED_57_):: defines_var(X_INTRODUCED_57_);
constraint int_abs(X_INTRODUCED_58_,X_INTRODUCED_59_):: defines_var(X_INTRODUCED_59_);
constraint int_abs(X_INTRODUCED_60_,X_INTRODUCED_61_):: defines_var(X_INTRODUCED_61_);
constraint int_abs(X_INTRODUCED_62_,X_INTRODUCED_63_):: defines_var(X_INTRODUCED_63_);
constraint int_abs(X_INTRODUCED_64_,X_INTRODUCED_65_):: defines_var(X_INTRODUCED_65_);
constraint int_abs(X_INTRODUCED_66_,X_INTRODUCED_67_):: defines_var(X_INTRODUCED_67_);
constraint int_abs(X_INTRODUCED_68_,X_INTRODUCED_69_):: defines_var(X_INTRODUCED_69_);
constraint int_abs(X_INTRODUCED_70_,X_INTRODUCED_71_):: defines_var(X_INTRODUCED_71_);
constraint int_abs(X_INTRODUCED_72_,X_INTRODUCED_73_):: defines_var(X_INTRODUCED_73_);
constraint int_abs(X_INTRODUCED_74_,X_INTRODUCED_75_):: defines_var(X_INTRODUCED_75_);
constraint int_abs(X_INTRODUCED_76_,X_INTRODUCED_77_):: defines_var(X_INTRODUCED_77_);
constraint int_abs(X_INTRODUCED_78_,X_INTRODUCED_79_):: defines_var(X_INTRODUCED_79_);
constraint int_abs(X_INTRODUCED_80_,X_INTRODUCED_81_):: defines_var(X_INTRODUCED_81_);
constraint int_abs(X_INTRODUCED_82_,X_INTRODUCED_83_):: defines_var(X_INTRODUCED_83_);
constraint int_abs(X_INTRODUCED_84_,X_INTRODUCED_85_):: defines_var(X_INTRODUCED_85_);
constraint int_abs(X_INTRODUCED_86_,X_INTRODUCED_87_):: defines_var(X_INTRODUCED_87_);
constraint int_abs(X_INTRODUCED_88_,X_INTRODUCED_89_):: defines_var(X_INTRODUCED_89_);
constraint int_abs(X_INTRODUCED_90_,X_INTRODUCED_91_):: defines_var(X_INTRODUCED_91_);
constraint int_abs(X_INTRODUCED_92_,X_INTRODUCED_93_):: defines_var(X_INTRODUCED_93_);
constraint bool_clause([X_INTRODUCED_95_],[X_INTRODUCED_94_]);
constraint array_bool_or([X_INTRODUCED_94_,X_INTRODUCED_96_],true);
constraint bool_clause([X_INTRODUCED_107_],[X_INTRODUCED_106_]);
constraint array_bool_or([X_INTRODUCED_106_,X_INTRODUCED_108_],true);
constraint bool_clause([X_INTRODUCED_119_],[X_INTRODUCED_118_]);
constraint array_bool_or([X_INTRODUCED_118_,X_INTRODUCED_120_],true);
constraint bool_clause([X_INTRODUCED_131_],[X_INTRODUCED_130_]);
constraint array_bool_or([X_INTRODUCED_130_,X_INTRODUCED_132_],true);
constraint bool_clause([X_INTRODUCED_143_],[X_INTRODUCED_142_]);
constraint array_bool_or([X_INTRODUCED_142_,X_INTRODUCED_144_],true);
constraint bool_clause([X_INTRODUCED_155_],[X_INTRODUCED_154_]);
constraint array_bool_or([X_INTRODUCED_154_,X_INTRODUCED_156_],true);
constraint array_var_int_element(X_INTRODUCED_36_,order,1);
constraint array_var_int_element(X_INTRODUCED_18_,time,1);
constraint array_var_int_element(X_INTRODUCED_37_,order,2);
constraint array_var_int_element(X_INTRODUCED_19_,time,2);
constraint array_var_int_element(X_INTRODUCED_38_,order,3);
constraint array_var_int_element(X_INTRODUCED_20_,time,3);
constraint array_var_int_element(X_INTRODUCED_39_,order,4);
constraint array_var_int_element(X_INTRODUCED_21_,time,4);
constraint array_var_int_element(X_INTRODUCED_40_,order,5);
constraint array_var_int_element(X_INTRODUCED_22_,time,5);
constraint array_var_int_element(X_INTRODUCED_41_,order,6);
constraint array_var_int_element(X_INTRODUCED_23_,time,6);
constraint array_var_int_element(X_INTRODUCED_42_,order,7);
constraint array_var_int_element(X_INTRODUCED_24_,time,7);
constraint array_var_int_element(X_INTRODUCED_43_,order,8);
constraint array_var_int_element(X_INTRODUCED_25_,time,8);
constraint array_var_int_element(X_INTRODUCED_44_,order,9);
constraint array_var_int_element(X_INTRODUCED_26_,time,9);
constraint array_var_int_element(X_INTRODUCED_45_,order,10);
constraint array_var_int_element(X_INTRODUCED_27_,time,10);
constraint array_var_int_element(X_INTRODUCED_46_,order,11);
constraint array_var_int_element(X_INTRODUCED_28_,time,11);
constraint array_var_int_element(X_INTRODUCED_47_,order,12);
constraint array_var_int_element(X_INTRODUCED_29_,time,12);
constraint array_var_int_element(X_INTRODUCED_48_,order,13);
constraint array_var_int_element(X_INTRODUCED_30_,time,13);
constraint array_var_int_element(X_INTRODUCED_49_,order,14);
constraint array_var_int_element(X_INTRODUCED_31_,time,14);
constraint array_var_int_element(X_INTRODUCED_50_,order,15);
constraint array_var_int_element(X_INTRODUCED_32_,time,15);
constraint array_var_int_element(X_INTRODUCED_51_,order,16);
constraint array_var_int_element(X_INTRODUCED_33_,time,16);
constraint array_var_int_element(X_INTRODUCED_52_,order,17);
constraint array_var_int_element(X_INTRODUCED_34_,time,17);
constraint array_var_int_element(X_INTRODUCED_53_,order,18);
constraint array_var_int_element(X_INTRODUCED_35_,time,18);
constraint inverse_offsets(time,1,order,1);
constraint bool_clause([X_INTRODUCED_203_],[X_INTRODUCED_202_]);
constraint array_bool_or([X_INTRODUCED_202_,X_INTRODUCED_204_],true);
constraint bool_clause([X_INTRODUCED_215_],[X_INTRODUCED_214_]);
constraint array_bool_or([X_INTRODUCED_214_,X_INTRODUCED_216_],true);
constraint bool_clause([X_INTRODUCED_227_],[X_INTRODUCED_226_]);
constraint array_bool_or([X_INTRODUCED_226_,X_INTRODUCED_228_],true);
constraint bool_clause([X_INTRODUCED_239_],[X_INTRODUCED_238_]);
constraint array_bool_or([X_INTRODUCED_238_,X_INTRODUCED_240_],true);
constraint bool_clause([X_INTRODUCED_251_],[X_INTRODUCED_250_]);
constraint array_bool_or([X_INTRODUCED_250_,X_INTRODUCED_252_],true);
constraint bool_clause([X_INTRODUCED_263_],[X_INTRODUCED_262_]);
constraint array_bool_or([X_INTRODUCED_262_,X_INTRODUCED_264_],true);
constraint bool_clause([X_INTRODUCED_275_],[X_INTRODUCED_274_]);
constraint array_bool_or([X_INTRODUCED_274_,X_INTRODUCED_276_],true);
constraint bool_clause([X_INTRODUCED_287_],[X_INTRODUCED_286_]);
constraint array_bool_or([X_INTRODUCED_286_,X_INTRODUCED_288_],true);
constraint bool_clause([X_INTRODUCED_299_],[X_INTRODUCED_298_]);
constraint array_bool_or([X_INTRODUCED_298_,X_INTRODUCED_300_],true);
constraint bool_clause([X_INTRODUCED_311_],[X_INTRODUCED_310_]);
constraint array_bool_or([X_INTRODUCED_310_,X_INTRODUCED_312_],true);
constraint bool_clause([X_INTRODUCED_323_],[X_INTRODUCED_322_]);
constraint array_bool_or([X_INTRODUCED_322_,X_INTRODUCED_324_],true);
constraint bool_clause([X_INTRODUCED_335_],[X_INTRODUCED_334_]);
constraint array_bool_or([X_INTRODUCED_334_,X_INTRODUCED_336_],true);
constraint int_lin_le(X_INTRODUCED_55_,[X_INTRODUCED_37_,X_INTRODUCED_38_],-1);
constraint int_lin_le(X_INTRODUCED_55_,[X_INTRODUCED_40_,X_INTRODUCED_41_],-1);
constraint int_lin_le(X_INTRODUCED_55_,[X_INTRODUCED_45_,X_INTRODUCED_46_],-1);
constraint int_lin_le(X_INTRODUCED_55_,[X_INTRODUCED_48_,X_INTRODUCED_49_],-1);
constraint int_lin_le(X_INTRODUCED_55_,[X_INTRODUCED_49_,X_INTRODUCED_50_],-1);
constraint int_lin_le(X_INTRODUCED_55_,[X_INTRODUCED_52_,X_INTRODUCED_53_],-1);
constraint int_lin_eq([1,1,1,1,1,1,1,1,1,1,1,1,1,1,1,1,1,1,-1],[X_INTRODUCED_0_,X_INTRODUCED_1_,X_INTRODUCED_2_,X_INTRODUCED_3_,X_INTRODUCED_4_,X_INTRODUCED_5_,X_INTRODUCED_6_,X_INTRODUCED_7_,X_INTRODUCED_8_,X_INTRODUCED_9_,X_INTRODUCED_10_,X_INTRODUCED_11_,X_INTRODUCED_12_,X_INTRODUCED_13_,X_INTRODUCED_14_,X_INTRODUCED_15_,X_INTRODUCED_16_,X_INTRODUCED_17_,X_INTRODUCED_54_],0):: defines_var(X_INTRODUCED_54_);
constraint int_lin_eq([1,-1,-1],[X_INTRODUCED_36_,X_INTRODUCED_37_,X_INTRODUCED_56_],0):: defines_var(X_INTRODUCED_56_);
constraint int_lin_eq([1,-1,-1],[X_INTRODUCED_36_,X_INTRODUCED_38_,X_INTRODUCED_58_],0):: defines_var(X_INTRODUCED_58_);
constraint int_lin_eq([1,-1,-1],[X_INTRODUCED_37_,X_INTRODUCED_38_,X_INTRODUCED_60_],0):: defines_var(X_INTRODUCED_60_);
constraint int_lin_eq([1,-1,-1],[X_INTRODUCED_39_,X_INTRODUCED_40_,X_INTRODUCED_62_],0):: defines_var(X_INTRODUCED_62_);
constraint int_lin_eq([1,-1,-1],[X_INTRODUCED_39_,X_INTRODUCED_41_,X_INTRODUCED_64_],0):: defines_var(X_INTRODUCED_64_);
constraint int_lin_eq([1,-1,-1],[X_INTRODUCED_40_,X_INTRODUCED_41_,X_INTRODUCED_66_],0):: defines_var(X_INTRODUCED_66_);
constraint int_lin_eq([1,-1,-1],[X_INTRODUCED_42_,X_INTRODUCED_43_,X_INTRODUCED_68_],0):: defines_var(X_INTRODUCED_68_);
constraint int_lin_eq([1,-1,-1],[X_INTRODUCED_44_,X_INTRODUCED_45_,X_INTRODUCED_70_],0):: defines_var(X_INTRODUCED_70_);
constraint int_lin_eq([1,-1,-1],[X_INTRODUCED_44_,X_INTRODUCED_46_,X_INTRODUCED_72_],0):: defines_var(X_INTRODUCED_72_);
constraint int_lin_eq([1,-1,-1],[X_INTRODUCED_45_,X_INTRODUCED_46_,X_INTRODUCED_74_],0):: defines_var(X_INTRODUCED_74_);
constraint int_lin_eq([1,-1,-1],[X_INTRODUCED_47_,X_INTRODUCED_48_,X_INTRODUCED_76_],0):: defines_var(X_INTRODUCED_76_);
constraint int_lin_eq([1,-1,-1],[X_INTRODUCED_47_,X_INTRODUCED_49_,X_INTRODUCED_78_],0):: defines_var(X_INTRODUCED_78_);
constraint int_lin_eq([1,-1,-1],[X_INTRODUCED_47_,X_INTRODUCED_50_,X_INTRODUCED_80_],0):: defines_var(X_INTRODUCED_80_);
constraint int_lin_eq([1,-1,-1],[X_INTRODUCED_48_,X_INTRODUCED_49_,X_INTRODUCED_82_],0):: defines_var(X_INTRODUCED_82_);
constraint int_lin_eq([1,-1,-1],[X_INTRODUCED_48_,X_INTRODUCED_50_,X_INTRODUCED_84_],0):: defines_var(X_INTRODUCED_84_);
constraint int_lin_eq([1,-1,-1],[X_INTRODUCED_49_,X_INTRODUCED_50_,X_INTRODUCED_86_],0):: defines_var(X_INTRODUCED_86_);
constraint int_lin_eq([1,-1,-1],[X_INTRODUCED_51_,X_INTRODUCED_52_,X_INTRODUCED_88_],0):: defines_var(X_INTRODUCED_88_);
constraint int_lin_eq([1,-1,-1],[X_INTRODUCED_51_,X_INTRODUCED_53_,X_INTRODUCED_90_],0):: defines_var(X_INTRODUCED_90_);
constraint int_lin_eq([1,-1,-1],[X_INTRODUCED_52_,X_INTRODUCED_53_,X_INTRODUCED_92_],0):: defines_var(X_INTRODUCED_92_);
constraint int_le_reif(X_INTRODUCED_36_,8,X_INTRODUCED_94_):: defines_var(X_INTRODUCED_94_);
constraint int_eq_reif(X_INTRODUCED_0_,3,X_INTRODUCED_95_):: defines_var(X_INTRODUCED_95_);
constraint int_eq_reif(X_INTRODUCED_0_,0,X_INTRODUCED_96_):: defines_var(X_INTRODUCED_96_);
constraint int_le_reif(X_INTRODUCED_39_,8,X_INTRODUCED_106_):: defines_var(X_INTRODUCED_106_);
constraint int_eq_reif(X_INTRODUCED_3_,3,X_INTRODUCED_107_):: defines_var(X_INTRODUCED_107_);
constraint int_eq_reif(X_INTRODUCED_3_,0,X_INTRODUCED_108_):: defines_var(X_INTRODUCED_108_);
constraint int_le_reif(X_INTRODUCED_42_,8,X_INTRODUCED_118_):: defines_var(X_INTRODUCED_118_);
constraint int_eq_reif(X_INTRODUCED_6_,3,X_INTRODUCED_119_):: defines_var(X_INTRODUCED_119_);
constraint int_eq_reif(X_INTRODUCED_6_,0,X_INTRODUCED_120_):: defines_var(X_INTRODUCED_120_);
constraint int_le_reif(X_INTRODUCED_44_,8,X_INTRODUCED_130_):: defines_var(X_INTRODUCED_130_);
constraint int_eq_reif(X_INTRODUCED_8_,3,X_INTRODUCED_131_):: defines_var(X_INTRODUCED_131_);
constraint int_eq_reif(X_INTRODUCED_8_,0,X_INTRODUCED_132_):: defines_var(X_INTRODUCED_132_);
constraint int_le_reif(X_INTRODUCED_47_,8,X_INTRODUCED_142_):: defines_var(X_INTRODUCED_142_);
constraint int_eq_reif(X_INTRODUCED_11_,3,X_INTRODUCED_143_):: defines_var(X_INTRODUCED_143_);
constraint int_eq_reif(X_INTRODUCED_11_,0,X_INTRODUCED_144_):: defines_var(X_INTRODUCED_144_);
constraint int_le_reif(X_INTRODUCED_51_,8,X_INTRODUCED_154_):: defines_var(X_INTRODUCED_154_);
constraint int_eq_reif(X_INTRODUCED_15_,3,X_INTRODUCED_155_):: defines_var(X_INTRODUCED_155_);
constraint int_eq_reif(X_INTRODUCED_15_,0,X_INTRODUCED_156_):: defines_var(X_INTRODUCED_156_);
constraint int_lin_le_reif(X_INTRODUCED_55_,[X_INTRODUCED_37_,X_INTRODUCED_36_],-1,X_INTRODUCED_202_):: defines_var(X_INTRODUCED_202_);
constraint int_eq_reif(X_INTRODUCED_1_,1,X_INTRODUCED_203_):: defines_var(X_INTRODUCED_203_);
constraint int_eq_reif(X_INTRODUCED_1_,0,X_INTRODUCED_204_):: defines_var(X_INTRODUCED_204_);
constraint int_lin_le_reif(X_INTRODUCED_55_,[X_INTRODUCED_38_,X_INTRODUCED_36_],-1,X_INTRODUCED_214_):: defines_var(X_INTRODUCED_214_);
constraint int_eq_reif(X_INTRODUCED_2_,1,X_INTRODUCED_215_):: defines_var(X_INTRODUCED_215_);
constraint int_eq_reif(X_INTRODUCED_2_,0,X_INTRODUCED_216_):: defines_var(X_INTRODUCED_216_);
constraint int_lin_le_reif(X_INTRODUCED_55_,[X_INTRODUCED_40_,X_INTRODUCED_39_],-1,X_INTRODUCED_226_):: defines_var(X_INTRODUCED_226_);
constraint int_eq_reif(X_INTRODUCED_4_,1,X_INTRODUCED_227_):: defines_var(X_INTRODUCED_227_);
constraint int_eq_reif(X_INTRODUCED_4_,0,X_INTRODUCED_228_):: defines_var(X_INTRODUCED_228_);
constraint int_lin_le_reif(X_INTRODUCED_55_,[X_INTRODUCED_41_,X_INTRODUCED_39_],-1,X_INTRODUCED_238_):: defines_var(X_INTRODUCED_238_);
constraint int_eq_reif(X_INTRODUCED_5_,1,X_INTRODUCED_239_):: defines_var(X_INTRODUCED_239_);
constraint int_eq_reif(X_INTRODUCED_5_,0,X_INTRODUCED_240_):: defines_var(X_INTRODUCED_240_);
constraint int_lin_le_reif(X_INTRODUCED_55_,[X_INTRODUCED_43_,X_INTRODUCED_42_],-1,X_INTRODUCED_250_):: defines_var(X_INTRODUCED_250_);
constraint int_eq_reif(X_INTRODUCED_7_,1,X_INTRODUCED_251_):: defines_var(X_INTRODUCED_251_);
constraint int_eq_reif(X_INTRODUCED_7_,0,X_INTRODUCED_252_):: defines_var(X_INTRODUCED_252_);
constraint int_lin_le_reif(X_INTRODUCED_55_,[X_INTRODUCED_45_,X_INTRODUCED_44_],-1,X_INTRODUCED_262_):: defines_var(X_INTRODUCED_262_);
constraint int_eq_reif(X_INTRODUCED_9_,1,X_INTRODUCED_263_):: defines_var(X_INTRODUCED_263_);
constraint int_eq_reif(X_INTRODUCED_9_,0,X_INTRODUCED_264_):: defines_var(X_INTRODUCED_264_);
constraint int_lin_le_reif(X_INTRODUCED_55_,[X_INTRODUCED_46_,X_INTRODUCED_44_],-1,X_INTRODUCED_274_):: defines_var(X_INTRODUCED_274_);
constraint int_eq_reif(X_INTRODUCED_10_,1,X_INTRODUCED_275_):: defines_var(X_INTRODUCED_275_);
constraint int_eq_reif(X_INTRODUCED_10_,0,X_INTRODUCED_276_):: defines_var(X_INTRODUCED_276_);
constraint int_lin_le_reif(X_INTRODUCED_55_,[X_INTRODUCED_48_,X_INTRODUCED_47_],-1,X_INTRODUCED_286_):: defines_var(X_INTRODUCED_286_);
constraint int_eq_reif(X_INTRODUCED_12_,1,X_INTRODUCED_287_):: defines_var(X_INTRODUCED_287_);
constraint int_eq_reif(X_INTRODUCED_12_,0,X_INTRODUCED_288_):: defines_var(X_INTRODUCED_288_);
constraint int_lin_le_reif(X_INTRODUCED_55_,[X_INTRODUCED_49_,X_INTRODUCED_47_],-1,X_INTRODUCED_298_):: defines_var(X_INTRODUCED_298_);
constraint int_eq_reif(X_INTRODUCED_13_,1,X_INTRODUCED_299_):: defines_var(X_INTRODUCED_299_);
constraint int_eq_reif(X_INTRODUCED_13_,0,X_INTRODUCED_300_):: defines_var(X_INTRODUCED_300_);
constraint int_lin_le_reif(X_INTRODUCED_55_,[X_INTRODUCED_50_,X_INTRODUCED_47_],-1,X_INTRODUCED_310_):: defines_var(X_INTRODUCED_310_);
constraint int_eq_reif(X_INTRODUCED_14_,1,X_INTRODUCED_311_):: defines_var(X_INTRODUCED_311_);
constraint int_eq_reif(X_INTRODUCED_14_,0,X_INTRODUCED_312_):: defines_var(X_INTRODUCED_312_);
constraint int_lin_le_reif(X_INTRODUCED_55_,[X_INTRODUCED_52_,X_INTRODUCED_51_],-1,X_INTRODUCED_322_):: defines_var(X_INTRODUCED_322_);
constraint int_eq_reif(X_INTRODUCED_16_,1,X_INTRODUCED_323_):: defines_var(X_INTRODUCED_323_);
constraint int_eq_reif(X_INTRODUCED_16_,0,X_INTRODUCED_324_):: defines_var(X_INTRODUCED_324_);
constraint int_lin_le_reif(X_INTRODUCED_55_,[X_INTRODUCED_53_,X_INTRODUCED_51_],-1,X_INTRODUCED_334_):: defines_var(X_INTRODUCED_334_);
constraint int_eq_reif(X_INTRODUCED_17_,1,X_INTRODUCED_335_):: defines_var(X_INTRODUCED_335_);
constraint int_eq_reif(X_INTRODUCED_17_,0,X_INTRODUCED_336_):: defines_var(X_INTRODUCED_336_);
solve :: int_search(time,first_fail,indomain_max,complete) maximize X_INTRODUCED_54_;
